Reading model...
...model read.
creating competitive generators file...
...competitive generators recorded.
Loading data...
.. real-time data read.
Compiling instance...
...instance created.
Creating Offer Mitigation (model will solve as dispatch if TRUE)...
...storage offer mitigation file created
Converting model to MPEC...
...converted
NOTE: initial MIP solve with only storage competitive to get feasible solution
Solving...

Welcome to IBM(R) ILOG(R) CPLEX(R) Interactive Optimizer 12.10.0.0
  with Simplex, Mixed Integer & Barrier Optimizers
5725-A06 5725-A29 5724-Y48 5724-Y49 5724-Y54 5724-Y55 5655-Y21
Copyright IBM Corp. 1988, 2019.  All Rights Reserved.

Type 'help' for a list of available commands.
Type 'help' followed by a command name for more
information on commands.

CPLEX> Logfile 'cplex.log' closed.
Logfile 'C:\Users\wenmi\Desktop\competitiveMPEC\logs\tmp8vuljhj3.cplex.log' open.
CPLEX> New value for parallel optimization mode: -1
CPLEX> New value for mixed integer optimality gap tolerance: 0.05
CPLEX> New value for deterministic time limit in ticks: 100000
CPLEX> Problem 'C:\Users\wenmi\Desktop\competitiveMPEC\logs\tmpjnpuy19j.pyomo.lp' read.
Read time = 0.33 sec. (26.93 ticks)
CPLEX> Problem name         : C:\Users\wenmi\Desktop\competitiveMPEC\logs\tmpjnpuy19j.pyomo.lp
Objective sense      : Maximize
Variables            :  106816  [Nneg: 1,  Box: 43669,  Free: 8832,
                                 Binary: 54314]
Objective nonzeros   :   17377
Linear constraints   :  244875  [Less: 82143,  Greater: 117460,  Equal: 45272]
  Nonzeros           :  576741
  RHS nonzeros       :  133579

Variables            : Min LB: -5000.000        Max UB: 1000000.       
Objective nonzeros   : Min   : 0.02500000       Max   : 180.0000       
Linear constraints   :
  Nonzeros           : Min   : 0.02500000       Max   : 1000000.       
  RHS nonzeros       : Min   : 0.02500000       Max   : 1000000.       
CPLEX> Version identifier: 12.10.0.0 | 2019-11-26 | 843d4de2ae
CPXPARAM_Parallel                                -1
CPXPARAM_DetTimeLimit                            100000
CPXPARAM_MIP_Tolerances_MIPGap                   0.050000000000000003
Tried aggregator 3 times.
MIP Presolve eliminated 180646 rows and 41474 columns.
MIP Presolve added 6048 rows and 0 columns.
MIP Presolve modified 48116 coefficients.
Aggregator did 25621 substitutions.
Reduced MIP has 44656 rows, 38089 columns, and 123716 nonzeros.
Reduced MIP has 15000 binaries, 0 generals, 0 SOSs, and 0 indicators.
Presolve time = 0.33 sec. (325.75 ticks)
Probing fixed 909 vars, tightened 8556 bounds.
Probing time = 0.08 sec. (15.16 ticks)
Tried aggregator 2 times.
Detecting symmetries...
MIP Presolve eliminated 2010 rows and 1818 columns.
MIP Presolve modified 5364 coefficients.
Aggregator did 48 substitutions.
Reduced MIP has 42598 rows, 36223 columns, and 117734 nonzeros.
Reduced MIP has 14091 binaries, 0 generals, 0 SOSs, and 0 indicators.
Presolve time = 0.13 sec. (202.89 ticks)
Probing fixed 0 vars, tightened 466 bounds.
Probing time = 0.19 sec. (22.28 ticks)
Clique table members: 85971.
MIP emphasis: balance optimality and feasibility.
MIP search method: dynamic search.
Parallel mode: opportunistic, using up to 16 threads.
Root relaxation solution time = 0.59 sec. (1556.02 ticks)

        Nodes                                         Cuts/
   Node  Left     Objective  IInf  Best Integer    Best Bound    ItCnt     Gap

      0     0     3961.5853   399                   3961.5853    10402         
      0     0     3961.5853   399                Flowcuts: 12    10407         
      0     0     3961.5853   399                    Cuts: 71    10427         
*     0+    0                         3960.7421     3961.5853             0.02%

Cover cuts applied:  1
Flow cuts applied:  51
Gomory fractional cuts applied:  4

Root node processing (before b&c):
  Real time             =    3.14 sec. (4859.89 ticks)
Parallel b&c, 16 threads:
  Real time             =    0.00 sec. (0.00 ticks)
  Sync time (average)   =    0.00 sec.
  Wait time (average)   =    0.00 sec.
                          ------------
Total (root+branch&cut) =    3.14 sec. (4859.89 ticks)

Solution pool: 1 solution saved.

MIP - Integer optimal, tolerance (0.05/1e-06):  Objective =  3.9607420755e+03
Current MIP best bound =  3.9615852959e+03 (gap = 0.84322, 0.02%)
Solution time =    3.16 sec.  Iterations = 10430  Nodes = 0 (1)
Deterministic time = 4860.19 ticks  (1539.98 ticks/sec)

CPLEX> Incumbent solution written to file 'C:\Users\wenmi\Desktop\competitiveMPEC\logs\tmpd25sgjno.cplex.sol'.
CPLEX> NOTE: no warmstart specified for MIP iteration, default behavior is true
NOTE: resolving with all competitive generators using storage-only solution to warmstart
Solving...

Welcome to IBM(R) ILOG(R) CPLEX(R) Interactive Optimizer 12.10.0.0
  with Simplex, Mixed Integer & Barrier Optimizers
5725-A06 5725-A29 5724-Y48 5724-Y49 5724-Y54 5724-Y55 5655-Y21
Copyright IBM Corp. 1988, 2019.  All Rights Reserved.

Type 'help' for a list of available commands.
Type 'help' followed by a command name for more
information on commands.

CPLEX> Logfile 'cplex.log' closed.
Logfile 'C:\Users\wenmi\Desktop\competitiveMPEC\logs\tmphrdq_ztu.cplex.log' open.
CPLEX> New value for parallel optimization mode: -1
CPLEX> New value for mixed integer optimality gap tolerance: 0.05
CPLEX> New value for deterministic time limit in ticks: 100000
CPLEX> Problem 'C:\Users\wenmi\Desktop\competitiveMPEC\logs\tmppzp6_vgr.pyomo.lp' read.
Read time = 0.31 sec. (26.97 ticks)
CPLEX> MIP start file 'C:\Users\wenmi\Desktop\competitiveMPEC\logs\tmp5gqrvfac.cplex.mst' read.
CPLEX> Problem name         : C:\Users\wenmi\Desktop\competitiveMPEC\logs\tmppzp6_vgr.pyomo.lp
Objective sense      : Maximize
Variables            :  108256  [Nneg: 1,  Box: 45109,  Free: 8832,
                                 Binary: 54314]
Objective nonzeros   :   18769
Linear constraints   :  244875  [Less: 82143,  Greater: 117460,  Equal: 45272]
  Nonzeros           :  576741
  RHS nonzeros       :  133579

Variables            : Min LB: -5000.000        Max UB: 1000000.       
Objective nonzeros   : Min   : 0.02500000       Max   : 180.0000       
Linear constraints   :
  Nonzeros           : Min   : 0.02500000       Max   : 1000000.       
  RHS nonzeros       : Min   : 0.02500000       Max   : 1000000.       
CPLEX> Version identifier: 12.10.0.0 | 2019-11-26 | 843d4de2ae
CPXPARAM_Parallel                                -1
CPXPARAM_DetTimeLimit                            100000
CPXPARAM_MIP_Tolerances_MIPGap                   0.050000000000000003
Warning:  No solution found from 1 MIP starts.
Retaining values of one MIP start for possible repair.
Tried aggregator 3 times.
MIP Presolve eliminated 180646 rows and 42914 columns.
MIP Presolve added 6048 rows and 0 columns.
MIP Presolve modified 48116 coefficients.
Aggregator did 25621 substitutions.
Reduced MIP has 44656 rows, 38089 columns, and 123716 nonzeros.
Reduced MIP has 15000 binaries, 0 generals, 0 SOSs, and 0 indicators.
Presolve time = 0.33 sec. (326.45 ticks)
Probing fixed 909 vars, tightened 8556 bounds.
Probing time = 0.08 sec. (15.17 ticks)
Tried aggregator 2 times.
Detecting symmetries...
MIP Presolve eliminated 2010 rows and 1818 columns.
MIP Presolve modified 5364 coefficients.
Aggregator did 48 substitutions.
Reduced MIP has 42598 rows, 36223 columns, and 117734 nonzeros.
Reduced MIP has 14091 binaries, 0 generals, 0 SOSs, and 0 indicators.
Presolve time = 0.14 sec. (202.90 ticks)
Probing fixed 0 vars, tightened 466 bounds.
Probing time = 0.19 sec. (22.28 ticks)
Clique table members: 85971.
MIP emphasis: balance optimality and feasibility.
MIP search method: dynamic search.
Parallel mode: opportunistic, using up to 16 threads.
Root relaxation solution time = 0.58 sec. (1571.97 ticks)

        Nodes                                         Cuts/
   Node  Left     Objective  IInf  Best Integer    Best Bound    ItCnt     Gap

      0     0     5403.4955   468                   5403.4955    10465         
      0     0     5403.4955   468               Flowcuts: 150    10490         
*     0+    0                         5400.0808     5403.4955             0.06%

Cover cuts applied:  1
Flow cuts applied:  177

Root node processing (before b&c):
  Real time             =    2.34 sec. (3236.47 ticks)
Parallel b&c, 16 threads:
  Real time             =    0.00 sec. (0.00 ticks)
  Sync time (average)   =    0.00 sec.
  Wait time (average)   =    0.00 sec.
                          ------------
Total (root+branch&cut) =    2.34 sec. (3236.47 ticks)

Solution pool: 1 solution saved.

MIP - Integer optimal, tolerance (0.05/1e-06):  Objective =  5.4000807766e+03
Current MIP best bound =  5.4034955406e+03 (gap = 3.41476, 0.06%)
Solution time =    2.34 sec.  Iterations = 10511  Nodes = 0 (1)
Deterministic time = 3236.77 ticks  (1380.88 ticks/sec)

CPLEX> Incumbent solution written to file 'C:\Users\wenmi\Desktop\competitiveMPEC\logs\tmp6y29teo_.cplex.sol'.
CPLEX> Exporting results... 
